NAME : X-n801-80-k32
COMMENT : "Generated by Queiroga, Frota, Sadykov, Subramanian, Uchoa and Vidal (2019)" 
TYPE : CVRP
DIMENSION : 801
EDGE_WEIGHT_TYPE : EUC_2D
CAPACITY : 20
NODE_COORD_SECTION
1 -1 0 0
2 0 674 825
3 0 549 534
4 0 43 315
5 0 542 420
6 0 45 580
7 0 180 450
8 0 369 618
9 0 287 721
10 0 36 426
11 0 680 338
12 0 42 81
13 0 942 119
14 0 247 68
15 0 432 549
16 0 514 857
17 0 554 976
18 0 103 728
19 0 271 73
20 0 310 859
21 0 874 538
22 0 358 642
23 0 989 42
24 0 538 271
25 0 854 443
26 0 596 563
27 0 827 228
28 0 380 40
29 0 152 224
30 0 726 258
31 0 981 544
32 0 600 381
33 0 629 799
34 0 488 12
35 0 100 542
36 0 37 272
37 0 847 980
38 0 949 124
39 0 787 917
40 0 111 958
41 0 571 968
42 0 2 409
43 0 95 2
44 0 318 447
45 0 271 856
46 0 873 697
47 0 34 274
48 0 733 17
49 0 620 125
50 0 611 334
51 0 66 848
52 0 507 711
53 0 993 152
54 0 596 683
55 0 605 980
56 0 372 833
57 0 968 699
58 0 36 620
59 0 518 566
60 0 138 457
61 0 828 421
62 0 467 39
63 0 626 645
64 0 192 923
65 0 56 363
66 0 252 349
67 0 202 896
68 0 999 331
69 0 843 462
70 0 83 975
71 0 475 135
72 0 601 55
73 0 578 43
74 0 480 854
75 0 124 825
76 0 121 228
77 0 355 326
78 0 291 944
79 0 784 563
80 0 260 251
81 0 472 918
82 0 193 715
83 0 539 592
84 0 794 290
85 0 930 315
86 0 190 654
87 0 429 292
88 0 79 779
89 0 931 409
90 0 114 765
91 0 948 685
92 0 550 915
93 0 383 979
94 0 127 64
95 0 541 935
96 0 218 159
97 0 396 194
98 0 216 85
99 0 106 843
100 0 174 744
101 0 782 117
102 0 699 379
103 0 497 355
104 0 87 161
105 0 558 199
106 0 721 10
107 0 18 53
108 0 704 674
109 0 443 783
110 0 755 58
111 0 928 666
112 0 347 805
113 0 360 600
114 0 101 119
115 0 938 556
116 0 422 848
117 0 934 275
118 0 391 807
119 0 712 230
120 0 908 359
121 0 992 823
122 0 80 246
123 0 367 837
124 0 865 661
125 0 67 146
126 0 956 582
127 0 977 663
128 0 930 343
129 0 896 542
130 0 631 472
131 0 62 636
132 0 817 759
133 0 914 195
134 0 46 591
135 0 102 825
136 0 822 527
137 0 763 684
138 0 975 128
139 0 26 941
140 0 314 34
141 0 787 474
142 0 512 291
143 0 718 832
144 0 244 931
145 0 534 425
146 0 585 799
147 0 513 990
148 0 641 633
149 0 254 283
150 0 448 389
151 0 702 44
152 0 109 823
153 0 402 190
154 0 184 314
155 0 26 270
156 0 333 949
157 0 132 174
158 0 203 842
159 0 182 78
160 0 575 723
161 0 807 656
162 0 745 757
163 0 320 523
164 0 175 626
165 0 488 947
166 0 376 858
167 0 540 797
168 0 52 401
169 0 441 748
170 0 491 459
171 0 398 734
172 0 202 560
173 0 636 652
174 0 813 892
175 0 403 311
176 0 201 878
177 0 245 641
178 0 894 2
179 0 515 142
180 0 701 895
181 0 143 590
182 0 612 652
183 0 650 986
184 0 932 420
185 0 410 762
186 0 676 219
187 0 174 236
188 0 204 25
189 0 828 312
190 0 120 96
191 0 409 434
192 0 405 549
193 0 379 787
194 0 810 191
195 0 129 755
196 0 499 596
197 0 754 620
198 0 937 430
199 0 61 519
200 0 29 34
201 0 843 640
202 0 520 251
203 0 385 685
204 0 619 501
205 0 239 564
206 0 908 111
207 0 234 353
208 0 467 896
209 0 742 499
210 0 277 981
211 0 194 265
212 0 851 885
213 0 850 444
214 0 131 847
215 0 806 302
216 0 627 401
217 0 267 788
218 0 805 211
219 0 61 985
220 0 729 142
221 0 402 812
222 0 956 593
223 0 907 977
224 0 670 71
225 0 863 184
226 0 74 25
227 0 741 581
228 0 38 919
229 0 963 467
230 0 979 558
231 0 916 241
232 0 4 676
233 0 217 612
234 0 311 756
235 0 235 42
236 0 815 106
237 0 848 461
238 0 46 198
239 0 460 210
240 0 293 234
241 0 274 248
242 0 986 983
243 0 800 608
244 0 342 852
245 0 623 95
246 0 258 221
247 0 420 244
248 0 444 16
249 0 223 518
250 0 821 540
251 0 939 766
252 0 157 549
253 0 106 921
254 0 961 583
255 0 925 959
256 0 619 540
257 0 507 97
258 0 790 509
259 0 404 252
260 0 44 843
261 0 363 737
262 0 752 492
263 0 352 216
264 0 226 577
265 0 817 913
266 0 115 221
267 0 200 58
268 0 38 628
269 0 711 595
270 0 479 404
271 0 332 129
272 0 929 145
273 0 93 139
274 0 269 260
275 0 583 421
276 0 424 47
277 0 715 796
278 0 240 26
279 0 743 62
280 0 633 515
281 0 528 202
282 0 976 456
283 0 54 828
284 0 739 497
285 0 191 890
286 0 384 316
287 0 713 629
288 0 502 205
289 0 563 779
290 0 205 892
291 0 368 18
292 0 766 621
293 0 207 679
294 0 506 481
295 0 622 691
296 0 946 987
297 0 890 793
298 0 182 900
299 0 530 981
300 0 540 313
301 0 78 213
302 0 456 978
303 0 99 363
304 0 623 878
305 0 448 422
306 0 379 61
307 0 792 953
308 0 347 720
309 0 373 793
310 0 330 512
311 0 22 7
312 0 445 147
313 0 431 90
314 0 517 208
315 0 659 423
316 0 724 233
317 0 906 970
318 0 476 43
319 0 522 237
320 0 571 317
321 0 280 476
322 0 571 424
323 0 885 129
324 0 452 500
325 0 743 544
326 0 493 777
327 0 976 918
328 0 412 154
329 0 686 502
330 0 762 39
331 0 473 60
332 0 570 414
333 0 201 567
334 0 226 169
335 0 12 159
336 0 627 681
337 0 589 346
338 0 563 637
339 0 678 455
340 0 361 119
341 0 849 338
342 0 776 929
343 0 511 327
344 0 128 163
345 0 183 433
346 0 697 48
347 0 3 800
348 0 361 10
349 0 499 410
350 0 601 34
351 0 73 124
352 0 908 439
353 0 136 356
354 0 203 835
355 0 355 733
356 0 221 582
357 0 961 627
358 0 661 144
359 0 875 331
360 0 455 290
361 0 104 892
362 0 281 548
363 0 378 180
364 0 329 906
365 0 41 229
366 0 320 770
367 0 191 805
368 0 767 162
369 0 72 237
370 0 491 176
371 0 716 497
372 0 391 682
373 0 828 526
374 0 457 274
375 0 934 814
376 0 33 480
377 0 765 225
378 0 337 209
379 0 903 78
380 0 223 461
381 0 668 475
382 0 201 270
383 0 261 879
384 0 697 920
385 0 152 937
386 0 573 385
387 0 724 568
388 0 892 43
389 0 159 283
390 0 931 623
391 0 585 768
392 0 449 408
393 0 459 705
394 0 203 692
395 0 215 862
396 0 712 480
397 0 150 407
398 0 274 443
399 0 565 501
400 0 230 119
401 0 157 111
402 0 481 368
403 0 662 102
404 0 252 72
405 0 737 554
406 0 111 96
407 0 110 348
408 0 232 480
409 0 970 989
410 0 910 901
411 0 598 686
412 0 327 371
413 0 267 682
414 0 571 194
415 0 383 829
416 0 897 166
417 0 869 417
418 0 244 30
419 0 809 255
420 0 4 177
421 0 340 996
422 0 32 602
423 0 793 712
424 0 916 104
425 0 77 731
426 0 489 744
427 0 330 707
428 0 600 540
429 0 803 954
430 0 123 430
431 0 998 17
432 0 229 468
433 0 67 511
434 0 897 279
435 0 448 185
436 0 680 762
437 0 752 263
438 0 724 44
439 0 911 15
440 0 29 685
441 0 563 589
442 0 972 125
443 0 696 82
444 0 61 393
445 0 536 881
446 0 963 57
447 0 690 225
448 0 759 430
449 0 535 47
450 0 468 19
451 0 860 45
452 0 810 233
453 0 753 13
454 0 217 331
455 0 747 415
456 0 106 630
457 0 207 218
458 0 389 952
459 0 974 969
460 0 242 335
461 0 249 118
462 0 118 982
463 0 741 606
464 0 15 459
465 0 52 684
466 0 990 159
467 0 325 995
468 0 926 999
469 0 123 903
470 0 544 369
471 0 582 67
472 0 676 344
473 0 793 276
474 0 774 131
475 0 447 520
476 0 675 775
477 0 723 323
478 0 624 108
479 0 431 317
480 0 531 961
481 0 401 76
482 0 493 604
483 0 125 188
484 0 558 463
485 0 646 587
486 0 736 62
487 0 698 127
488 0 270 234
489 0 100 418
490 0 154 568
491 0 396 895
492 0 890 116
493 0 740 150
494 0 509 345
495 0 42 516
496 0 837 341
497 0 363 882
498 0 9 260
499 0 543 783
500 0 238 33
501 0 101 723
502 0 823 319
503 0 376 753
504 0 421 707
505 0 912 300
506 0 564 169
507 0 101 247
508 0 418 767
509 0 79 258
510 0 806 598
511 0 857 357
512 0 465 7
513 0 718 756
514 0 571 33
515 0 858 934
516 0 498 115
517 0 270 966
518 0 837 44
519 0 897 98
520 0 659 168
521 0 6 579
522 0 33 841
523 0 846 736
524 0 792 131
525 0 524 301
526 0 545 773
527 0 154 997
528 0 945 365
529 0 248 354
530 0 206 831
531 0 351 798
532 0 868 116
533 0 936 974
534 0 809 145
535 0 542 321
536 0 515 23
537 0 167 912
538 0 594 490
539 0 910 515
540 0 542 619
541 0 855 937
542 0 758 776
543 0 217 592
544 0 810 821
545 0 735 333
546 0 950 557
547 0 305 532
548 0 880 441
549 0 877 400
550 0 771 528
551 0 592 578
552 0 520 681
553 0 175 953
554 0 276 21
555 0 574 742
556 0 199 633
557 0 852 821
558 0 476 514
559 0 326 299
560 0 589 781
561 0 960 350
562 0 830 120
563 0 0 291
564 0 65 496
565 0 877 905
566 0 753 97
567 0 329 24
568 0 207 545
569 0 811 359
570 0 113 342
571 0 120 573
572 0 295 581
573 0 298 609
574 0 731 893
575 0 763 273
576 0 816 651
577 0 702 61
578 0 880 426
579 0 719 232
580 0 955 689
581 0 715 141
582 0 788 762
583 0 34 817
584 0 105 22
585 0 857 788
586 0 134 359
587 0 831 163
588 0 361 870
589 0 975 958
590 0 553 819
591 0 807 673
592 0 19 838
593 0 746 121
594 0 130 380
595 0 741 511
596 0 80 424
597 0 173 767
598 0 906 426
599 0 990 111
600 0 748 520
601 0 92 895
602 0 371 978
603 0 986 670
604 0 929 905
605 0 661 524
606 0 974 197
607 0 742 652
608 0 732 747
609 0 870 188
610 0 612 890
611 0 348 284
612 0 973 109
613 0 34 437
614 0 137 997
615 0 474 63
616 0 665 444
617 0 300 335
618 0 856 104
619 0 866 249
620 0 528 91
621 0 140 964
622 0 25 937
623 0 848 367
624 0 486 786
625 0 857 918
626 0 357 860
627 0 823 709
628 0 162 150
629 0 77 809
630 0 516 380
631 0 772 832
632 0 387 199
633 0 261 767
634 0 619 645
635 0 754 57
636 0 692 838
637 0 193 932
638 0 738 941
639 0 406 976
640 0 811 360
641 0 487 965
642 1 396 197
643 1 444 940
644 1 182 954
645 1 85 539
646 1 70 483
647 1 161 570
648 1 447 194
649 1 757 845
650 1 692 506
651 1 930 251
652 1 950 549
653 1 601 86
654 1 143 117
655 1 698 634
656 1 238 877
657 1 543 987
658 1 761 809
659 1 494 134
660 1 562 925
661 1 838 282
662 1 834 210
663 1 926 436
664 1 375 833
665 1 568 225
666 1 106 594
667 1 675 986
668 1 835 632
669 1 144 83
670 1 272 373
671 1 4 496
672 1 299 740
673 1 805 641
674 1 482 600
675 1 255 448
676 1 834 470
677 1 117 696
678 1 837 469
679 1 345 585
680 1 703 523
681 1 476 565
682 1 893 816
683 1 271 417
684 1 877 492
685 1 605 578
686 1 156 613
687 1 607 721
688 1 527 358
689 1 54 581
690 1 591 478
691 1 7 37
692 1 529 997
693 1 705 436
694 1 110 166
695 1 702 173
696 1 962 671
697 1 262 521
698 1 82 75
699 1 1000 703
700 1 607 536
701 1 764 227
702 1 827 744
703 1 788 463
704 1 450 136
705 1 72 466
706 1 119 348
707 1 32 58
708 1 178 910
709 1 381 159
710 1 686 207
711 1 276 358
712 1 683 682
713 1 708 748
714 1 707 282
715 1 141 999
716 1 558 169
717 1 403 688
718 1 315 671
719 1 827 880
720 1 601 481
721 1 641 950
722 1 98 116
723 1 611 668
724 1 313 616
725 1 928 521
726 1 595 498
727 1 350 295
728 1 397 963
729 1 595 904
730 1 798 339
731 1 978 460
732 1 260 800
733 1 302 615
734 1 653 302
735 1 5 126
736 1 512 800
737 1 541 691
738 1 559 690
739 1 24 21
740 1 465 522
741 1 125 178
742 1 868 947
743 1 204 141
744 1 636 919
745 1 703 643
746 1 385 155
747 1 790 245
748 1 244 833
749 1 244 666
750 1 870 543
751 1 606 359
752 1 712 497
753 1 553 343
754 1 532 975
755 1 555 276
756 1 165 33
757 1 757 787
758 1 537 457
759 1 120 51
760 1 932 958
761 1 815 623
762 1 502 636
763 1 859 508
764 1 42 675
765 1 10 496
766 1 999 300
767 1 908 736
768 1 735 980
769 1 459 564
770 1 49 877
771 1 483 587
772 1 945 557
773 1 602 2
774 1 633 936
775 1 379 182
776 1 814 486
777 1 710 500
778 1 178 687
779 1 466 406
780 1 186 732
781 1 381 762
782 1 69 478
783 1 193 411
784 1 109 653
785 1 40 10
786 1 142 303
787 1 90 111
788 1 334 499
789 1 443 482
790 1 187 290
791 1 262 691
792 1 814 908
793 1 171 930
794 1 446 214
795 1 893 96
796 1 205 410
797 1 137 120
798 1 115 986
799 1 745 541
800 1 368 926
801 1 77 338
DEMAND_SECTION
1 0
2 1
3 1
4 1
5 1
6 1
7 1
8 1
9 1
10 1
11 1
12 1
13 1
14 1
15 1
16 1
17 1
18 1
19 1
20 1
21 1
22 1
23 1
24 1
25 1
26 1
27 1
28 1
29 1
30 1
31 1
32 1
33 1
34 1
35 1
36 1
37 1
38 1
39 1
40 1
41 1
42 1
43 1
44 1
45 1
46 1
47 1
48 1
49 1
50 1
51 1
52 1
53 1
54 1
55 1
56 1
57 1
58 1
59 1
60 1
61 1
62 1
63 1
64 1
65 1
66 1
67 1
68 1
69 1
70 1
71 1
72 1
73 1
74 1
75 1
76 1
77 1
78 1
79 1
80 1
81 1
82 1
83 1
84 1
85 1
86 1
87 1
88 1
89 1
90 1
91 1
92 1
93 1
94 1
95 1
96 1
97 1
98 1
99 1
100 1
101 1
102 1
103 1
104 1
105 1
106 1
107 1
108 1
109 1
110 1
111 1
112 1
113 1
114 1
115 1
116 1
117 1
118 1
119 1
120 1
121 1
122 1
123 1
124 1
125 1
126 1
127 1
128 1
129 1
130 1
131 1
132 1
133 1
134 1
135 1
136 1
137 1
138 1
139 1
140 1
141 1
142 1
143 1
144 1
145 1
146 1
147 1
148 1
149 1
150 1
151 1
152 1
153 1
154 1
155 1
156 1
157 1
158 1
159 1
160 1
161 1
162 1
163 1
164 1
165 1
166 1
167 1
168 1
169 1
170 1
171 1
172 1
173 1
174 1
175 1
176 1
177 1
178 1
179 1
180 1
181 1
182 1
183 1
184 1
185 1
186 1
187 1
188 1
189 1
190 1
191 1
192 1
193 1
194 1
195 1
196 1
197 1
198 1
199 1
200 1
201 1
202 1
203 1
204 1
205 1
206 1
207 1
208 1
209 1
210 1
211 1
212 1
213 1
214 1
215 1
216 1
217 1
218 1
219 1
220 1
221 1
222 1
223 1
224 1
225 1
226 1
227 1
228 1
229 1
230 1
231 1
232 1
233 1
234 1
235 1
236 1
237 1
238 1
239 1
240 1
241 1
242 1
243 1
244 1
245 1
246 1
247 1
248 1
249 1
250 1
251 1
252 1
253 1
254 1
255 1
256 1
257 1
258 1
259 1
260 1
261 1
262 1
263 1
264 1
265 1
266 1
267 1
268 1
269 1
270 1
271 1
272 1
273 1
274 1
275 1
276 1
277 1
278 1
279 1
280 1
281 1
282 1
283 1
284 1
285 1
286 1
287 1
288 1
289 1
290 1
291 1
292 1
293 1
294 1
295 1
296 1
297 1
298 1
299 1
300 1
301 1
302 1
303 1
304 1
305 1
306 1
307 1
308 1
309 1
310 1
311 1
312 1
313 1
314 1
315 1
316 1
317 1
318 1
319 1
320 1
321 1
322 1
323 1
324 1
325 1
326 1
327 1
328 1
329 1
330 1
331 1
332 1
333 1
334 1
335 1
336 1
337 1
338 1
339 1
340 1
341 1
342 1
343 1
344 1
345 1
346 1
347 1
348 1
349 1
350 1
351 1
352 1
353 1
354 1
355 1
356 1
357 1
358 1
359 1
360 1
361 1
362 1
363 1
364 1
365 1
366 1
367 1
368 1
369 1
370 1
371 1
372 1
373 1
374 1
375 1
376 1
377 1
378 1
379 1
380 1
381 1
382 1
383 1
384 1
385 1
386 1
387 1
388 1
389 1
390 1
391 1
392 1
393 1
394 1
395 1
396 1
397 1
398 1
399 1
400 1
401 1
402 1
403 1
404 1
405 1
406 1
407 1
408 1
409 1
410 1
411 1
412 1
413 1
414 1
415 1
416 1
417 1
418 1
419 1
420 1
421 1
422 1
423 1
424 1
425 1
426 1
427 1
428 1
429 1
430 1
431 1
432 1
433 1
434 1
435 1
436 1
437 1
438 1
439 1
440 1
441 1
442 1
443 1
444 1
445 1
446 1
447 1
448 1
449 1
450 1
451 1
452 1
453 1
454 1
455 1
456 1
457 1
458 1
459 1
460 1
461 1
462 1
463 1
464 1
465 1
466 1
467 1
468 1
469 1
470 1
471 1
472 1
473 1
474 1
475 1
476 1
477 1
478 1
479 1
480 1
481 1
482 1
483 1
484 1
485 1
486 1
487 1
488 1
489 1
490 1
491 1
492 1
493 1
494 1
495 1
496 1
497 1
498 1
499 1
500 1
501 1
502 1
503 1
504 1
505 1
506 1
507 1
508 1
509 1
510 1
511 1
512 1
513 1
514 1
515 1
516 1
517 1
518 1
519 1
520 1
521 1
522 1
523 1
524 1
525 1
526 1
527 1
528 1
529 1
530 1
531 1
532 1
533 1
534 1
535 1
536 1
537 1
538 1
539 1
540 1
541 1
542 1
543 1
544 1
545 1
546 1
547 1
548 1
549 1
550 1
551 1
552 1
553 1
554 1
555 1
556 1
557 1
558 1
559 1
560 1
561 1
562 1
563 1
564 1
565 1
566 1
567 1
568 1
569 1
570 1
571 1
572 1
573 1
574 1
575 1
576 1
577 1
578 1
579 1
580 1
581 1
582 1
583 1
584 1
585 1
586 1
587 1
588 1
589 1
590 1
591 1
592 1
593 1
594 1
595 1
596 1
597 1
598 1
599 1
600 1
601 1
602 1
603 1
604 1
605 1
606 1
607 1
608 1
609 1
610 1
611 1
612 1
613 1
614 1
615 1
616 1
617 1
618 1
619 1
620 1
621 1
622 1
623 1
624 1
625 1
626 1
627 1
628 1
629 1
630 1
631 1
632 1
633 1
634 1
635 1
636 1
637 1
638 1
639 1
640 1
641 1
642 1
643 1
644 1
645 1
646 1
647 1
648 1
649 1
650 1
651 1
652 1
653 1
654 1
655 1
656 1
657 1
658 1
659 1
660 1
661 1
662 1
663 1
664 1
665 1
666 1
667 1
668 1
669 1
670 1
671 1
672 1
673 1
674 1
675 1
676 1
677 1
678 1
679 1
680 1
681 1
682 1
683 1
684 1
685 1
686 1
687 1
688 1
689 1
690 1
691 1
692 1
693 1
694 1
695 1
696 1
697 1
698 1
699 1
700 1
701 1
702 1
703 1
704 1
705 1
706 1
707 1
708 1
709 1
710 1
711 1
712 1
713 1
714 1
715 1
716 1
717 1
718 1
719 1
720 1
721 1
722 1
723 1
724 1
725 1
726 1
727 1
728 1
729 1
730 1
731 1
732 1
733 1
734 1
735 1
736 1
737 1
738 1
739 1
740 1
741 1
742 1
743 1
744 1
745 1
746 1
747 1
748 1
749 1
750 1
751 1
752 1
753 1
754 1
755 1
756 1
757 1
758 1
759 1
760 1
761 1
762 1
763 1
764 1
765 1
766 1
767 1
768 1
769 1
770 1
771 1
772 1
773 1
774 1
775 1
776 1
777 1
778 1
779 1
780 1
781 1
782 1
783 1
784 1
785 1
786 1
787 1
788 1
789 1
790 1
791 1
792 1
793 1
794 1
795 1
796 1
797 1
798 1
799 1
800 1
801 1
DEPOT_SECTION
1
-1
EOF
